language Essence 1.3

letting bot_end be
        [97, 9, 33, 115, 93, 174, 192, 69, 207, 51, 114, 43, 27, 53, 196, 100, 194, 76, 6, 206, 79; int(1..21)]
letting bot_start be
        [137, 101, 200, 26, 17, 93, 212, 78, 231, 142, 1, 103, 230, 82, 196, 49, 77, 201, 98, 99, 23; int(1..21)]
letting bots be 21
letting buffer_col be 2
letting buffer_row be 2
letting corridor_size be 1
letting n_shelves_col be 3
letting n_shelves_row be 7
letting shelf_col_size be 2
letting shelf_row_size be 1
